data/benchmarks/bayes/75-12-10-q.cnf
p cnf 672 653
c weights 0.189365 0.810635 1 1 1 1 1 1 1 1 1 1 1 1 1 1 1 1 1 1 1 1 1 1 1 1 1 1 1 1 1 1 1 1 1 1 1 1 1 1 1 1 1 1 1 1 1 1 1 1 1 1 1 1 1 1 1 1 1 1 1 1 1 1 1 1 1 1 1 1 1 1 1 1 1 1 1 1 1 1 1 1 1 1 1 1 1 1 1 1 1 1 1 1 1 1 1 1 1 1 1 1 1 1 1 1 1 1 1 1 1 1 1 1 1 1 1 1 1 1 1 1 1 1 1 1 1 1 1 1 1 1 1 1 1 1 1 1 1 1 1 1 1 1 1 1 1 1 1 1 1 1 1 1 1 1 1 1 1 1 1 1 1 1 1 1 1 1 1 1 1 1 1 1 1 1 1 1 1 1 1 1 1 1 1 1 1 1 1 1 1 1 1 1 1 1 1 1 1 1 1 1 1 1 1 1 1 1 1 1 1 1 1 1 1 1 1 1 1 1 1 1 1 1 1 1 1 1 1 1 1 1 1 1 1 1 1 1 1 1 1 1 1 1 1 1 1 1 1 1 1 1 1 1 1 1 1 1 1 1 1 1 1 1 1 1 1 1 1 1 1 1 1 1 1 1 1 1 1 1 1 1 1 1 1 1 1 1 0.5 0.5 0.5 0.5 0.5 0.5 0.5 0.5 0.5 0.5 0.5 0.5 0.48247 0.51753 0.615459 0.384541 0.5 0.5 0.5 0.5 0.5 0.5 0.5 0.5 0.240364 0.759636 0.0859234 0.9140766 0.207451 0.792549 0.132308 0.867692 0.5 0.5 0.5 0.5 0.5 0.5 0.5 0.5 0.5 0.5 0.5 0.5 0.785078 0.21492199999999995 0.410312 0.589688 0.678395 0.32160500000000003 0.599677 0.400323 0.387989 0.6120110000000001 0.399786 0.600214 0.5 0.5 0.5 0.5 0.5 0.5 0.5 0.5 0.5 0.5 0.5 0.5 0.5 0.5 0.5 0.5 0.5 0.5 0.5 0.5 0.5 0.5 0.5 0.5 0.5 0.5 0.5 0.5 0.5 0.5 0.5 0.5 0.5 0.5 0.5 0.5 0.5 0.5 0.5 0.5 0.5 0.5 0.5 0.5 0.5 0.5 0.5 0.5 0.5 0.5 0.5 0.5 0.5 0.5 0.5 0.5 0.5 0.5 0.5 0.5 0.5 0.5 0.5 0.5 0.775603 0.22439699999999996 0.0861658 0.9138342 0.392003 0.607997 0.0473273 0.9526727 0.5 0.5 0.5 0.5 0.5 0.5 0.5 0.5 0.5 0.5 0.5 0.5 0.5 0.5 0.5 0.5 0.5 0.5 0.5 0.5 0.5 0.5 0.5 0.5 0.5 0.5 0.5 0.5 0.5 0.5 0.5 0.5 0.5 0.5 0.5 0.5 0.5 0.5 0.5 0.5 0.5 0.5 0.5 0.5 0.5 0.5 0.5 0.5 0.5 0.5 0.5 0.5 0.5 0.5 0.5 0.5 0.5 0.5 0.5 0.5 0.5 0.5 0.5 0.5 0.5 0.5 0.5 0.5 0.088322 0.911678 0.126906 0.873094 0.896079 0.10392100000000004 0.120829 0.879171 0.846395 0.153605 0.820459 0.17954099999999995 0.950142 0.04985799999999996 0.00442007 0.99557993 0.5 0.5 0.5 0.5 0.5 0.5 0.5 0.5 0.5 0.5 0.5 0.5 0.5 0.5 0.5 0.5 0.812446 0.187554 0.781749 0.21825099999999997 0.5 0.5 0.5 0.5 0.5 0.5 0.5 0.5 0.5 0.5 0.5 0.5 0.5 0.5 0.5 0.5 0.5 0.5 0.5 0.5 0.5 0.5 0.5 0.5 0.193771 0.806229 0.993436 0.006564000000000014 0.681191 0.318809 0.946018 0.053981999999999974 0.5 0.5 0.5 0.5 0.5 0.5 0.5 0.5 0.5 0.5 0.5 0.5 0.5 0.5 0.5 0.5 0.5 0.5 0.5 0.5 0.5 0.5 0.5 0.5 0.5 0.5 0.5 0.5 0.5 0.5 0.5 0.5 0.5 0.5 0.5 0.5 0.5 0.5 0.5 0.5 0.5 0.5 0.5 0.5 0.5 0.5 0.5 0.5 0.5 0.5 0.5 0.5 0.5 0.5 0.5 0.5 0.5 0.5 0.5 0.5 0.5 0.5 0.5 0.5 0.5 0.5 0.5 0.5 0.5 0.5 0.5 0.5 0.5 0.5 0.5 0.5 0.88172 0.11828000000000005 0.411796 0.588204 0.385532 0.614468 0.906871 0.09312900000000002 0.5 0.5 0.5 0.5 0.5 0.5 0.5 0.5 0.5 0.5 0.5 0.5 0.5 0.5 0.5 0.5 0.760817 0.23918300000000003 0.0492909 0.9507091 0.913771 0.086229 0.079485 0.920515 0.5 0.5 0.5 0.5 0.5 0.5 0.5 0.5 0.5 0.5 0.5 0.5 0.5 0.5 0.5 0.5 0.871558 0.12844199999999995 0.00800515 0.99199485 0.675768 0.32423199999999996 0.320364 0.679636 0.47973 0.52027 0.99553 0.004469999999999974 0.0378309 0.9621691 0.00286733 0.99713267 0.5 0.5 0.5 0.5 0.5 0.5 0.5 0.5 0.5 0.5 0.5 0.5 0.306829 0.693171 0.589061 0.41093900000000005 0.983013 0.016986999999999974 0.604748 0.39525200000000005 0.936147 0.06385300000000005 0.628311 0.37168900000000005 0.602537 0.397463 0.797214 0.20278600000000002 0.5 0.5 0.5 0.5 0.5 0.5 0.5 0.5 0.5 0.5 0.5 0.5 0.5 0.5 0.5 0.5 0.5 0.5 0.5 0.5 0.5 0.5 0.5 0.5 0.5 0.5 0.5 0.5 0.5 0.5 0.5 0.5 0.5 0.5 0.5 0.5 0.5 0.5 0.5 0.5 0.5 0.5 0.5 0.5 0.5 0.5 0.5 0.5 0.5 0.5 0.5 0.5 0.5 0.5 0.5 0.5 0.5 0.5 0.5 0.5 0.5 0.5 0.5 0.5 0.5 0.5 0.5 0.5 0.5 0.5 0.5 0.5 0.0460841 0.9539159 0.899658 0.10034200000000004 0.102392 0.897608 0.394073 0.605927 0.955592 0.044408 0.925373 0.074627 0.5 0.5 0.5 0.5 0.5 0.5 0.5 0.5 0.5 0.5 0.5 0.5 0.5 0.5 0.5 0.5 0.5 0.5 0.5 0.5 0.5 0.5 0.5 0.5 0.195451 0.804549 0.0822189 0.9177811 0.0481206 0.9518794 0.861681 0.13831899999999997 0.5 0.5 0.5 0.5 0.5 0.5 0.5 0.5 0.882479 0.11752099999999999 0.87356 0.12644 0.162219 0.837781 0.838071 0.161929 0.357535 0.6424650000000001 0.496712 0.503288 0.530301 0.469699 0.958844 0.04115599999999997 0.5 0.5 0.5 0.5 0.5 0.5 0.5 0.5 0.72394 0.27605999999999997 0.988581 0.011418999999999957 0.799437 0.20056300000000005 0.502912 0.497088 0.5 0.5 0.5 0.5 0.5 0.5 0.5 0.5 0.5 0.5 0.5 0.5 0.5 0.5 0.5 0.5 0.5 0.5 0.5 0.5 0.5 0.5 0.5 0.5 0.5 0.5 0.5 0.5 0.360512 0.6394880000000001 0.675278 0.32472199999999996 0.58696 0.41303999999999996 0.364321 0.635679 0.5 0.5 0.5 0.5 0.5 0.5 0.5 0.5 0.92104 0.07896000000000003 0.716802 0.28319799999999995 0.462374 0.5376259999999999 0.619403 0.38059699999999996 0.5 0.5 0.5 0.5 0.5 0.5 0.5 0.5 0.5 0.5 0.5 0.5 0.5 0.5 0.5 0.5 0.5 0.5 0.5 0.5 0.5 0.5 0.5 0.5 0.5 0.5 0.5 0.5 0.5 0.5 0.5 0.5 0.460709 0.539291 0.635422 0.36457799999999996 0.874595 0.125405 0.878838 0.12116199999999999 0.5 0.5 0.5 0.5 0.5 0.5 0.5 0.5 0.5 0.5 0.5 0.5 0.5 0.5 0.5 0.5 0.5 0.5 0.5 0.5 0.5 0.5 0.5 0.5 0.5 0.5 0.5 0.5 0.5 0.5 0.5 0.5 0.5 0.5 0.5 0.5 0.5 0.5 0.5 0.5 0.5 0.5 0.5 0.5 0.5 0.5 0.5 0.5 0.5 0.5 0.5 0.5 0.5 0.5 0.5 0.5 0.5 0.5 0.5 0.5 0.5 0.5 0.5 0.5 0.5 0.5 0.5 0.5 0.5 0.5 0.5 0.5 0.5 0.5 0.5 0.5 0.00162212 0.99837788 0.742831 0.257169 0.834292 0.16570799999999997 0.46403 0.5359700000000001 0.5 0.5 0.5 0.5 0.5 0.5 0.5 0.5 0.5 0.5 0.5 0.5 0.5 0.5 0.5 0.5 0.5 0.5 0.5 0.5 0.5 0.5 0.5 0.5 0.5 0.5 0.5 0.5 0.5 0.5 0.5 0.5 0.5 0.5 0.5 0.5 0.5 0.5 0.5 0.5 0.5 0.5 0.5 0.5 0.304599 0.6954009999999999 0.176003 0.823997 0.277414 0.722586 0.749083 0.25091699999999995 0.489508 0.510492 0.628762 0.37123799999999996 0.251558 0.748442 0.19887 0.80113 0.202629 0.797371 0.410498 0.589502 0.041113 0.958887 0.522054 0.477946 0.483405 0.516595 0.629113 0.37088699999999997 0.374002 0.625998 0.454943 0.545057 0.5 0.5 0.5 0.5 0.5 0.5 0.5 0.5 0.899964 0.10003600000000001 0.320054 0.6799459999999999 0.119101 0.880899 0.37027 0.62973 0.5 0.5 0.5 0.5 0.5 0.5 0.5 0.5 0.5 0.5 0.5 0.5 0.5 0.5 0.5 0.5 0.5 0.5 0.5 0.5 0.5 0.5 0.5 0.5 0.5 0.5 0.5 0.5 0.5 0.5 0.5 0.5 0.5 0.5 0.5 0.5 0.5 0.5 0.5 0.5 0.5 0.5 0.5 0.5 0.190635 0.809365 0.680227 0.319773 0.284144 0.715856 0.222663 0.777337 0.5 0.5 0.5 0.5 0.5 0.5 0.5 0.5 0.5 0.5 0.5 0.5 0.5 0.5 0.5 0.5 0.5 0.5 0.5 0.5 0.5 0.5 0.5 0.5 0.5 0.5 0.5 0.5 0.5 0.5 0.5 0.5 0.340942 0.6590579999999999 0.652033 0.347967 0.835666 0.16433399999999998 0.531577 0.46842300000000003 0.5 0.5 0.5 0.5 0.5 0.5 0.5 0.5 0.5 0.5 0.5 0.5 0.5 0.5 0.5 0.5 0.5 0.5 0.5 0.5 0.5 0.5 0.5 0.5 0.5 0.5 0.5 0.5 0.5 0.5 0.5 0.5 0.5 0.5 0.5 0.5 0.5 0.5 0.5 0.5 0.5 0.5 0.5 0.5 0.5 0.5 0.5 0.5 0.5 0.5 0.5 0.5 0.5 0.5 0.5 0.5 0.5 0.5 0.5 0.5 0.5 0.5 0.5 0.5 0.5 0.5 0.5 0.5 0.5 0.5 0.5 0.5 0.5 0.5 0.5 0.5 0.5 0.5 0.5 0.5 0.5 0.5 0.5 0.5 0.5 0.5 0.5 0.5 0.5 0.5 0.5 0.5 0.5 0.5 0.5 0.5 0.5 0.5 0.5 0.5 0.857226 0.14277399999999996 0.210242 0.789758 0.957629 0.04237100000000005 0.601567 0.39843300000000004
-1 2 0
1 -2 0
-2 3 0
2 -3 0
-3 4 0
3 -4 0
-4 -151 5 0
-4 151 -5 0
4 -152 5 0
4 152 -5 0
-5 -6 0
5 6 0
-6 -7 0
6 7 0
-7 -157 8 0
-7 157 -8 0
7 -158 8 0
7 158 -8 0
-8 -159 9 0
-8 159 -9 0
8 -160 9 0
8 160 -9 0
-9 -10 0
9 10 0
-10 11 0
10 -11 0
-11 -12 0
11 12 0
-1 -167 13 0
-1 167 -13 0
1 -168 13 0
1 168 -13 0
-13 -2 -169 14 0
-13 -2 169 -14 0
-13 2 -170 14 0
-13 2 170 -14 0
13 -2 -171 14 0
13 -2 171 -14 0
13 2 -172 14 0
13 2 172 -14 0
-14 -3 -15 0
-14 3 -15 0
14 -3 15 0
14 3 -15 0
-15 -4 16 0
-15 4 16 0
15 -4 -16 0
15 4 -16 0
-16 -5 17 0
-16 5 17 0
16 -5 -17 0
16 5 17 0
-17 -6 18 0
-17 6 -18 0
17 -6 18 0
17 6 18 0
-18 -7 19 0
-18 7 -19 0
18 -7 19 0
18 7 19 0
-19 -8 20 0
-19 8 20 0
19 -8 -20 0
19 8 -20 0
-20 -9 21 0
-20 9 21 0
20 -9 21 0
20 9 -21 0
-21 -10 22 0
-21 10 -22 0
21 -10 -22 0
21 10 22 0
-22 -11 -205 23 0
-22 -11 205 -23 0
-22 11 -206 23 0
-22 11 206 -23 0
22 -11 -207 23 0
22 -11 207 -23 0
22 11 -208 23 0
22 11 208 -23 0
-23 -12 -24 0
-23 12 24 0
23 -12 24 0
23 12 -24 0
-13 25 0
13 -25 0
-25 -14 26 0
-25 14 26 0
25 -14 -26 0
25 14 -26 0
-26 -15 -27 0
-26 15 -27 0
26 -15 -27 0
26 15 27 0
-27 -16 28 0
-27 16 -28 0
27 -16 -28 0
27 16 -28 0
-28 -17 -29 0
-28 17 29 0
28 -17 -29 0
28 17 -29 0
-29 -18 -30 0
-29 18 30 0
29 -18 30 0
29 18 30 0
-30 -19 31 0
-30 19 31 0
30 -19 31 0
30 19 -31 0
-31 -20 32 0
-31 20 -32 0
31 -20 32 0
31 20 32 0
-32 -21 -243 33 0
-32 -21 243 -33 0
-32 21 -244 33 0
-32 21 244 -33 0
32 -21 -245 33 0
32 -21 245 -33 0
32 21 -246 33 0
32 21 246 -33 0
-33 -22 -247 34 0
-33 -22 247 -34 0
-33 22 -248 34 0
-33 22 248 -34 0
33 -22 -249 34 0
33 -22 249 -34 0
33 22 -250 34 0
33 22 250 -34 0
-34 -23 35 0
-34 23 35 0
34 -23 -35 0
34 23 35 0
-35 -24 -36 0
-35 24 36 0
35 -24 36 0
35 24 36 0
-25 -259 37 0
-25 259 -37 0
25 -260 37 0
25 260 -37 0
-37 -26 -38 0
-37 26 -38 0
37 -26 38 0
37 26 -38 0
-38 -27 -39 0
-38 27 39 0
38 -27 39 0
38 27 -39 0
-39 -28 40 0
-39 28 40 0
39 -28 40 0
39 28 -40 0
-40 -29 -273 41 0
-40 -29 273 -41 0
-40 29 -274 41 0
-40 29 274 -41 0
40 -29 -275 41 0
40 -29 275 -41 0
40 29 -276 41 0
40 29 276 -41 0
-41 -30 -42 0
-41 30 -42 0
41 -30 42 0
41 30 -42 0
-42 -31 -43 0
-42 31 43 0
42 -31 -43 0
42 31 -43 0
-43 -32 -44 0
-43 32 44 0
43 -32 -44 0
43 32 -44 0
-44 -33 -45 0
-44 33 -45 0
44 -33 -45 0
44 33 45 0
-45 -34 -46 0
-45 34 -46 0
45 -34 46 0
45 34 46 0
-46 -35 47 0
-46 35 -47 0
46 -35 -47 0
46 35 -47 0
-47 -36 -48 0
-47 36 -48 0
47 -36 -48 0
47 36 48 0
-37 49 0
37 -49 0
-49 -38 -50 0
-49 38 50 0
49 -38 -50 0
49 38 -50 0
-50 -39 51 0
-50 39 51 0
50 -39 -51 0
50 39 -51 0
-51 -40 -315 52 0
-51 -40 315 -52 0
-51 40 -316 52 0
-51 40 316 -52 0
51 -40 -317 52 0
51 -40 317 -52 0
51 40 -318 52 0
51 40 318 -52 0
-52 -41 -53 0
-52 41 -53 0
52 -41 -53 0
52 41 53 0
-53 -42 -54 0
-53 42 54 0
53 -42 -54 0
53 42 -54 0
-54 -43 -327 55 0
-54 -43 327 -55 0
-54 43 -328 55 0
-54 43 328 -55 0
54 -43 -329 55 0
54 -43 329 -55 0
54 43 -330 55 0
54 43 330 -55 0
-55 -44 -56 0
-55 44 56 0
55 -44 56 0
55 44 56 0
-56 -45 57 0
-56 45 57 0
56 -45 -57 0
56 45 57 0
-57 -46 -339 58 0
-57 -46 339 -58 0
-57 46 -340 58 0
-57 46 340 -58 0
57 -46 -341 58 0
57 -46 341 -58 0
57 46 -342 58 0
57 46 342 -58 0
-58 -47 -343 59 0
-58 -47 343 -59 0
-58 47 -344 59 0
-58 47 344 -59 0
58 -47 -345 59 0
58 -47 345 -59 0
58 47 -346 59 0
58 47 346 -59 0
-59 -48 -60 0
-59 48 60 0
59 -48 60 0
59 48 60 0
-49 -61 0
49 61 0
-61 -50 -353 62 0
-61 -50 353 -62 0
-61 50 -354 62 0
-61 50 354 -62 0
61 -50 -355 62 0
61 -50 355 -62 0
61 50 -356 62 0
61 50 356 -62 0
-62 -51 -357 63 0
-62 -51 357 -63 0
-62 51 -358 63 0
-62 51 358 -63 0
62 -51 -359 63 0
62 -51 359 -63 0
62 51 -360 63 0
62 51 360 -63 0
-63 -52 64 0
-63 52 -64 0
63 -52 64 0
63 52 64 0
-64 -53 -65 0
-64 53 65 0
64 -53 65 0
64 53 65 0
-65 -54 66 0
-65 54 -66 0
65 -54 -66 0
65 54 -66 0
-66 -55 67 0
-66 55 67 0
66 -55 -67 0
66 55 67 0
-67 -56 -68 0
-67 56 -68 0
67 -56 -68 0
67 56 68 0
-68 -57 69 0
-68 57 69 0
68 -57 69 0
68 57 -69 0
-69 -58 70 0
-69 58 70 0
69 -58 -70 0
69 58 -70 0
-70 -59 -71 0
-70 59 -71 0
70 -59 -71 0
70 59 71 0
-71 -60 -72 0
-71 60 -72 0
71 -60 72 0
71 60 -72 0
-61 -397 73 0
-61 397 -73 0
61 -398 73 0
61 398 -73 0
-73 -62 -399 74 0
-73 -62 399 -74 0
-73 62 -400 74 0
-73 62 400 -74 0
73 -62 -401 74 0
73 -62 401 -74 0
73 62 -402 74 0
73 62 402 -74 0
-74 -63 -75 0
-74 63 -75 0
74 -63 75 0
74 63 75 0
-75 -64 -76 0
-75 64 -76 0
75 -64 76 0
75 64 76 0
-76 -65 77 0
-76 65 77 0
76 -65 -77 0
76 65 77 0
-77 -66 -415 78 0
-77 -66 415 -78 0
-77 66 -416 78 0
-77 66 416 -78 0
77 -66 -417 78 0
77 -66 417 -78 0
77 66 -418 78 0
77 66 418 -78 0
-78 -67 79 0
-78 67 79 0
78 -67 -79 0
78 67 -79 0
-79 -68 -423 80 0
-79 -68 423 -80 0
-79 68 -424 80 0
-79 68 424 -80 0
79 -68 -425 80 0
79 -68 425 -80 0
79 68 -426 80 0
79 68 426 -80 0
-80 -69 -427 81 0
-80 -69 427 -81 0
-80 69 -428 81 0
-80 69 428 -81 0
80 -69 -429 81 0
80 -69 429 -81 0
80 69 -430 81 0
80 69 430 -81 0
-81 -70 -82 0
-81 70 -82 0
81 -70 82 0
81 70 82 0
-82 -71 -435 83 0
-82 -71 435 -83 0
-82 71 -436 83 0
-82 71 436 -83 0
82 -71 -437 83 0
82 -71 437 -83 0
82 71 -438 83 0
82 71 438 -83 0
-83 -72 84 0
-83 72 84 0
83 -72 -84 0
83 72 -84 0
-73 -85 0
73 85 0
-85 -74 -86 0
-85 74 -86 0
85 -74 86 0
85 74 86 0
-86 -75 -87 0
-86 75 -87 0
86 -75 -87 0
86 75 87 0
-87 -76 -453 88 0
-87 -76 453 -88 0
-87 76 -454 88 0
-87 76 454 -88 0
87 -76 -455 88 0
87 -76 455 -88 0
87 76 -456 88 0
87 76 456 -88 0
-88 -77 -89 0
-88 77 -89 0
88 -77 89 0
88 77 -89 0
-89 -78 -461 90 0
-89 -78 461 -90 0
-89 78 -462 90 0
-89 78 462 -90 0
89 -78 -463 90 0
89 -78 463 -90 0
89 78 -464 90 0
89 78 464 -90 0
-90 -79 -91 0
-90 79 91 0
90 -79 -91 0
90 79 -91 0
-91 -80 -92 0
-91 80 92 0
91 -80 92 0
91 80 -92 0
-92 -81 93 0
-92 81 -93 0
92 -81 -93 0
92 81 -93 0
-93 -82 94 0
-93 82 -94 0
93 -82 94 0
93 82 -94 0
-94 -83 -481 95 0
-94 -83 481 -95 0
-94 83 -482 95 0
-94 83 482 -95 0
94 -83 -483 95 0
94 -83 483 -95 0
94 83 -484 95 0
94 83 484 -95 0
-95 -84 -96 0
-95 84 96 0
95 -84 -96 0
95 84 -96 0
-85 -97 0
85 97 0
-97 -86 -98 0
-97 86 -98 0
97 -86 -98 0
97 86 98 0
-98 -87 -99 0
-98 87 99 0
98 -87 -99 0
98 87 -99 0
-99 -88 -100 0
-99 88 -100 0
99 -88 100 0
99 88 -100 0
-100 -89 101 0
-100 89 -101 0
100 -89 101 0
100 89 -101 0
-101 -90 -102 0
-101 90 -102 0
101 -90 102 0
101 90 -102 0
-102 -91 103 0
-102 91 -103 0
102 -91 -103 0
102 91 103 0
-103 -92 -104 0
-103 92 104 0
103 -92 104 0
103 92 -104 0
-104 -93 105 0
-104 93 -105 0
104 -93 -105 0
104 93 105 0
-105 -94 -523 106 0
-105 -94 523 -106 0
-105 94 -524 106 0
-105 94 524 -106 0
105 -94 -525 106 0
105 -94 525 -106 0
105 94 -526 106 0
105 94 526 -106 0
-106 -95 107 0
-106 95 -107 0
106 -95 -107 0
106 95 -107 0
-107 -96 -108 0
-107 96 108 0
107 -96 108 0
107 96 108 0
-97 -109 0
97 109 0
-109 -98 110 0
-109 98 -110 0
109 -98 -110 0
109 98 -110 0
-110 -99 -111 0
-110 99 -111 0
110 -99 111 0
110 99 111 0
-111 -100 -112 0
-111 100 112 0
111 -100 -112 0
111 100 112 0
-112 -101 -549 113 0
-112 -101 549 -113 0
-112 101 -550 113 0
-112 101 550 -113 0
112 -101 -551 113 0
112 -101 551 -113 0
112 101 -552 113 0
112 101 552 -113 0
-113 -102 -553 114 0
-113 -102 553 -114 0
-113 102 -554 114 0
-113 102 554 -114 0
113 -102 -555 114 0
113 -102 555 -114 0
113 102 -556 114 0
113 102 556 -114 0
-114 -103 -557 115 0
-114 -103 557 -115 0
-114 103 -558 115 0
-114 103 558 -115 0
114 -103 -559 115 0
114 -103 559 -115 0
114 103 -560 115 0
114 103 560 -115 0
-115 -104 -561 116 0
-115 -104 561 -116 0
-115 104 -562 116 0
-115 104 562 -116 0
115 -104 -563 116 0
115 -104 563 -116 0
115 104 -564 116 0
115 104 564 -116 0
-116 -105 -117 0
-116 105 -117 0
116 -105 -117 0
116 105 117 0
-117 -106 -569 118 0
-117 -106 569 -118 0
-117 106 -570 118 0
-117 106 570 -118 0
117 -106 -571 118 0
117 -106 571 -118 0
117 106 -572 118 0
117 106 572 -118 0
-118 -107 -119 0
-118 107 -119 0
118 -107 119 0
118 107 119 0
-119 -108 -120 0
-119 108 -120 0
119 -108 -120 0
119 108 120 0
-109 121 0
109 -121 0
-121 -110 122 0
-121 110 -122 0
121 -110 -122 0
121 110 -122 0
-122 -111 -123 0
-122 111 -123 0
122 -111 -123 0
122 111 123 0
-123 -112 124 0
-123 112 124 0
123 -112 -124 0
123 112 124 0
-124 -113 -595 125 0
-124 -113 595 -125 0
-124 113 -596 125 0
-124 113 596 -125 0
124 -113 -597 125 0
124 -113 597 -125 0
124 113 -598 125 0
124 113 598 -125 0
-125 -114 -126 0
-125 114 -126 0
125 -114 126 0
125 114 126 0
-126 -115 -127 0
-126 115 127 0
126 -115 127 0
126 115 127 0
-127 -116 -128 0
-127 116 -128 0
127 -116 128 0
127 116 -128 0
-128 -117 -129 0
-128 117 129 0
128 -117 129 0
128 117 129 0
-129 -118 -615 130 0
-129 -118 615 -130 0
-129 118 -616 130 0
-129 118 616 -130 0
129 -118 -617 130 0
129 -118 617 -130 0
129 118 -618 130 0
129 118 618 -130 0
-130 -119 131 0
-130 119 131 0
130 -119 131 0
130 119 -131 0
-131 -120 -132 0
-131 120 132 0
131 -120 132 0
131 120 132 0
-121 -133 0
121 133 0
-133 -122 -134 0
-133 122 134 0
133 -122 -134 0
133 122 -134 0
-134 -123 135 0
-134 123 135 0
134 -123 -135 0
134 123 -135 0
-135 -124 -136 0
-135 124 -136 0
135 -124 136 0
135 124 136 0
-136 -125 137 0
-136 125 -137 0
136 -125 -137 0
136 125 -137 0
-137 -126 138 0
-137 126 -138 0
137 -126 138 0
137 126 138 0
-138 -127 139 0
-138 127 -139 0
138 -127 -139 0
138 127 139 0
-139 -128 140 0
-139 128 -140 0
139 -128 -140 0
139 128 -140 0
-140 -129 141 0
-140 129 141 0
140 -129 -141 0
140 129 141 0
-141 -130 -142 0
-141 130 142 0
141 -130 142 0
141 130 142 0
-142 -131 -143 0
-142 131 -143 0
142 -131 -143 0
142 131 143 0
-143 -132 -669 144 0
-143 -132 669 -144 0
-143 132 -670 144 0
-143 132 670 -144 0
143 -132 -671 144 0
143 -132 671 -144 0
143 132 -672 144 0
143 132 672 -144 0
144 0
