data/benchmarks/bayes/75-12-10-q.gr
p tw 672 745
43 330
55 66
67 68
144 669
99 100
88 100
117 572
70 82
8 9
40 41
29 41
100 101
118 616
130 618
11 23
121 133
47 345
113 556
41 42
40 315
94 524
73 74
62 74
61 356
50 356
133 134
44 56
102 555
14 15
3 15
52 316
106 525
74 75
106 107
89 463
78 463
62 357
95 107
122 133
132 672
15 16
47 48
36 48
107 108
96 108
18 30
128 140
2 171
21 32
80 81
69 81
140 141
101 549
113 551
113 124
129 141
10 22
14 172
58 346
41 275
81 82
54 65
102 114
22 23
43 55
54 330
37 259
79 423
87 98
51 315
114 115
103 115
116 561
82 437
55 56
28 39
43 329
71 437
76 88
88 99
143 672
29 40
55 330
77 89
23 207
118 615
130 617
2 13
58 341
94 523
62 73
78 417
110 122
61 355
50 355
22 247
34 249
115 564
104 564
3 14
51 63
35 46
106 524
95 106
132 671
36 47
128 139
21 22
2 170
40 273
29 273
13 167
69 80
113 114
129 616
10 21
54 55
41 274
58 345
95 483
102 113
115 559
9 160
88 453
105 524
43 54
54 329
87 88
28 29
17 29
43 328
76 87
11 205
88 89
109 121
74 401
143 671
29 30
57 339
46 339
61 62
50 62
23 206
13 171
66 415
121 122
33 247
2 3
58 340
112 549
62 63
94 95
83 95
78 416
110 121
61 354
115 563
34 248
3 4
76 455
104 563
35 36
24 36
125 595
95 96
84 96
127 128
116 128
51 318
9 20
68 69
57 69
128 129
117 129
69 70
42 53
58 70
94 481
83 481
101 102
90 102
10 11
129 615
31 43
5 152
95 482
75 86
63 359
102 103
91 103
123 135
115 558
9 159
105 523
22 250
43 44
16 27
32 44
64 76
80 429
69 429
135 136
108 119
124 136
5 17
17 28
76 77
65 77
97 109
81 430
6 18
21 245
74 400
50 61
98 110
82 93
40 276
29 276
1 168
13 170
33 246
87 455
39 51
23 34
83 94
25 260
115 126
131 143
76 454
88 456
24 35
72 84
56 67
80 424
116 127
106 571
9 10
57 68
89 100
11 208
118 572
30 41
42 43
90 101
134 135
66 418
31 42
113 597
75 76
5 151
63 358
123 134
16 17
125 598
64 75
80 428
69 428
5 16
73 398
49 50
38 50
109 110
130 142
21 244
74 399
50 51
82 83
71 83
94 484
142 143
1 167
23 24
12 24
22 208
87 454
83 84
115 116
104 116
76 453
77 418
56 57
8 157
45 57
114 556
80 423
116 117
105 117
124 597
106 570
90 464
57 58
46 58
73 402
62 402
89 90
78 90
30 31
19 31
90 91
63 74
79 91
111 123
31 32
4 15
20 32
52 64
141 142
113 596
32 244
123 124
112 124
68 426
63 357
64 65
53 65
85 97
114 560
103 560
80 427
5 6
26 38
73 397
51 360
117 571
38 49
97 98
70 81
86 98
83 438
118 130
130 141
27 39
11 22
47 344
59 346
113 555
71 82
119 131
12 23
22 207
44 55
60 72
102 554
104 115
52 315
1 13
122 123
89 462
78 462
62 356
45 56
114 555
93 105
124 596
106 569
96 107
90 463
144 672
18 29
78 89
126 138
19 30
113 550
129 140
63 64
14 171
111 122
40 318
4 5
25 37
52 63
32 243
68 425
103 114
37 38
62 360
82 436
71 436
26 37
51 359
70 71
59 71
117 570
83 437
118 129
55 329
130 131
77 88
11 12
130 616
59 345
47 343
92 104
101 552
113 554
44 45
33 45
50 354
102 553
125 137
51 62
106 523
89 461
79 426
62 355
78 461
66 78
116 564
132 670
137 138
124 595
18 19
7 19
144 671
99 111
2 169
129 130
40 52
118 618
113 549
111 112
100 112
132 144
14 170
58 344
41 273
40 317
94 526
73 85
7 158
54 328
103 104
14 26
85 86
62 359
106 118
82 435
71 435
43 327
136 137
47 59
59 70
117 569
118 119
107 119
143 670
77 78
55 328
23 205
130 615
80 92
101 551
113 553
92 103
58 339
110 111
78 415
33 44
61 353
50 353
34 247
81 93
115 562
51 52
104 562
125 136
84 95
143 144
132 669
79 425
62 354
51 317
66 77
116 563
114 126
117 128
55 67
99 110
58 69
57 342
46 342
40 51
118 617
33 250
132 143
58 343
95 481
91 102
112 552
25 26
94 525
115 557
22 249
32 43
54 327
14 25
114 125
124 135
17 18
106 117
65 76
81 429
47 58
6 17
143 669
2 172
98 109
40 275
21 33
13 169
29 275
83 484
80 91
33 245
113 125
39 50
129 618
41 276
25 259
131 142
54 66
115 561
13 25
88 455
105 526
104 561
72 83
37 260
87 99
51 316
116 562
117 118
28 40
11 207
118 571
120 132
58 59
57 341
46 341
23 208
61 73
66 417
33 249
91 92
2 14
58 342
112 551
78 418
94 106
32 33
22 248
34 250
125 597
124 125
35 47
69 427
127 139
65 66
81 428
68 80
6 7
21 243
139 140
98 99
40 274
29 274
13 168
94 483
83 483
101 113
39 40
33 244
87 453
129 617
131 132
95 484
71 438
115 560
105 525
88 454
77 417
105 116
46 57
73 401
62 401
11 206
118 570
120 131
74 402
79 90
57 340
46 340
66 416
13 172
20 31
33 248
113 595
112 550
112 123
94 105
53 64
76 456
125 596
114 559
8 160
103 559
80 426
38 39
127 138
86 97
9 21
81 427
68 79
27 38
71 72
119 130
42 54
94 482
83 482
101 112
33 243
22 206
60 71
104 105
75 87
13 14
63 360
45 46
34 46
77 416
114 554
93 104
105 106
16 28
80 430
69 430
90 462
46 47
108 120
78 79
67 79
73 400
62 400
126 137
138 139
49 61
19 20
8 20
118 569
79 80
21 246
82 94
20 21
52 53
41 53
87 456
112 113
23 35
68 424
52 318
115 127
53 54
74 86
114 558
8 159
103 558
56 68
80 425
26 27
15 27
106 572
86 87
51 358
83 436
4 152
89 101
27 28
48 60
59 344
119 120
30 42
22 205
113 598
32 246
1 2
22 34
34 45
93 94
77 415
61 398
114 553
7 18
90 461
144 670
67 78
73 399
62 399
126 127
8 19
100 111
47 346
14 169
40 316
41 52
102 556
7 157
68 423
52 317
106 526
89 464
74 85
62 358
78 464
122 134
114 557
8 158
103 557
124 598
15 26
59 60
51 357
107 118
83 435
55 327
4 151
48 59
92 93
59 343
101 550
113 552
63 75
33 34
81 92
4 16
125 126
32 245
22 33
34 35
66 67
79 424
62 353
61 397
37 49
7 8
82 438
